c instance by G2
c solution = 00110110100
c Known solution cost is 646 
p cnf 11 30
w 88 70 4 89 99 34 16 54 94 9 89
-1 -11 5 0
5 -10 -3 0
3 -4 -6 0
-11 -4 2 0
9 -11 10 0
-1 8 9 0
-4 8 -1 0
7 2 -4 0
-1 -6 -10 0
1 -8 -9 0
5 7 -9 0
-2 6 7 0
6 2 7 0
-6 2 9 0
-9 -2 10 0
4 2 -8 0
6 -7 2 0
-10 -8 1 0
-4 -6 -5 0
-10 1 -3 0
8 3 2 0
-6 -7 4 0
7 2 6 0
3 4 -11 0
-6 -10 2 0
10 -1 5 0
3 -9 -10 0
-4 -11 10 0
1 -9 7 0
-6 -2 -9 0
